<?xml version = "1.0" standalone="yes"?>
<!-- This file has been generated by DOcplex version 2.23.222  -->
<CPLEXSolution version="1.0">
 <header
   problemName="CVRP"
   objectiveValue="18910"
  />
 <variables>
  <variable name="x_0_1" index="0" value="1.00000"/>
  <variable name="x_0_2" index="1" value="1.00000"/>
  <variable name="x_0_3" index="2" value="1.00000"/>
  <variable name="x_0_4" index="3" value="1.00000"/>
  <variable name="x_0_5" index="4" value="1.00000"/>
  <variable name="x_0_6" index="5" value="1.00000"/>
  <variable name="x_0_7" index="6" value="1.00000"/>
  <variable name="x_0_8" index="7" value="1.00000"/>
  <variable name="x_0_13" index="12" value="1.00000"/>
  <variable name="x_0_14" index="13" value="1.00000"/>
  <variable name="x_0_15" index="14" value="1.00000"/>
  <variable name="x_0_18" index="17" value="1.00000"/>
  <variable name="x_1_0" index="18" value="1.00000"/>
  <variable name="x_2_0" index="36" value="1.00000"/>
  <variable name="x_3_16" index="69" value="1.00000"/>
  <variable name="x_4_0" index="72" value="1.00000"/>
  <variable name="x_5_9" index="98" value="1.00000"/>
  <variable name="x_6_0" index="108" value="1.00000"/>
  <variable name="x_7_11" index="136" value="1.00000"/>
  <variable name="x_8_0" index="144" value="1.00000"/>
  <variable name="x_9_0" index="162" value="1.00000"/>
  <variable name="x_10_0" index="180" value="1.00000"/>
  <variable name="x_11_17" index="214" value="1.00000"/>
  <variable name="x_12_0" index="216" value="1.00000"/>
  <variable name="x_13_0" index="234" value="1.00000"/>
  <variable name="x_14_10" index="262" value="1.00000"/>
  <variable name="x_15_12" index="282" value="1.00000"/>
  <variable name="x_16_0" index="288" value="1.00000"/>
  <variable name="x_17_0" index="306" value="1.00000"/>
  <variable name="x_18_0" index="324" value="1.00000"/>
  <variable name="u_1" index="342" value="69.00000"/>
  <variable name="u_2" index="343" value="45.00000"/>
  <variable name="u_3" index="344" value="19.00000"/>
  <variable name="u_4" index="345" value="40.00000"/>
  <variable name="u_5" index="346" value="36.00000"/>
  <variable name="u_6" index="347" value="50.00000"/>
  <variable name="u_7" index="348" value="11.00000"/>
  <variable name="u_8" index="349" value="62.00000"/>
  <variable name="u_9" index="350" value="54.00000"/>
  <variable name="u_10" index="351" value="62.00000"/>
  <variable name="u_11" index="352" value="59.00000"/>
  <variable name="u_12" index="353" value="69.00000"/>
  <variable name="u_13" index="354" value="69.00000"/>
  <variable name="u_14" index="355" value="39.00000"/>
  <variable name="u_15" index="356" value="37.00000"/>
  <variable name="u_16" index="357" value="56.00000"/>
  <variable name="u_17" index="358" value="62.00000"/>
  <variable name="u_18" index="359" value="69.00000"/>
 </variables>
</CPLEXSolution>
